************************************************************************
file with basedata            : cm123_.bas
initial value random generator: 819773028
************************************************************************
projects                      :  1
jobs (incl. supersource/sink ):  18
horizon                       :  99
RESOURCES
  - renewable                 :  2   R
  - nonrenewable              :  2   N
  - doubly constrained        :  0   D
************************************************************************
PROJECT INFORMATION:
pronr.  #jobs rel.date duedate tardcost  MPM-Time
    1     16      0       43       15       43
************************************************************************
PRECEDENCE RELATIONS:
jobnr.    #modes  #successors   successors
   1        1          3           2   3   4
   2        1          3           5   8  15
   3        1          3           6   8  10
   4        1          3          10  11  13
   5        1          2          10  16
   6        1          3           7  11  12
   7        1          2           9  14
   8        1          2          12  17
   9        1          2          15  16
  10        1          1          17
  11        1          3          14  15  17
  12        1          1          13
  13        1          1          14
  14        1          1          16
  15        1          1          18
  16        1          1          18
  17        1          1          18
  18        1          0        
************************************************************************
REQUESTS/DURATIONS:
jobnr. mode duration  R 1  R 2  N 1  N 2
------------------------------------------------------------------------
  1      1     0       0    0    0    0
  2      1     6       7   10    3    0
  3      1     6       7    1    5    0
  4      1     2       5    5    6    0
  5      1     8       8    7    6    0
  6      1     5       8    6    0    4
  7      1     5       7    5    0    5
  8      1     5       7    8    0    8
  9      1    10       8   10    0    6
 10      1     7      10    5    9    0
 11      1     6       6    7    0    8
 12      1     8       4    5    8    0
 13      1     9       4    1    0    3
 14      1    10       8    7    0    4
 15      1     2       6    3    0    7
 16      1     5       7    1    0    8
 17      1     5       9    7    8    0
 18      1     0       0    0    0    0
************************************************************************
RESOURCEAVAILABILITIES:
  R 1  R 2  N 1  N 2
   24   23   45   53
************************************************************************
